NAME          DCAP_2_3_3_300_SS251
ROWS
 N  OBJ
 L  CON1
 L  CON2
 L  CON3
 L  CON4
 L  CON5
 L  CON6
 L  CON7
 L  CON8
 L  CON9
 L  CON10
 L  CON11
 L  CON12
 E  CON13
 E  CON14
 E  CON15
 E  CON16
 E  CON17
 E  CON18
 E  CON19
 E  CON20
 E  CON21
COLUMNS
    x[1,1]    OBJ       6.180167      CON1      1.000000    
    x[1,1]    CON7      -1.000000     CON8      -1.000000   
    x[1,1]    CON9      -1.000000   
    x[1,2]    OBJ       6.563535      CON2      1.000000    
    x[1,2]    CON8      -1.000000     CON9      -1.000000   
    x[1,3]    OBJ       7.443064      CON3      1.000000    
    x[1,3]    CON9      -1.000000   
    x[2,1]    OBJ       6.732585      CON4      1.000000    
    x[2,1]    CON10     -1.000000     CON11     -1.000000   
    x[2,1]    CON12     -1.000000   
    x[2,2]    OBJ       5.039546      CON5      1.000000    
    x[2,2]    CON11     -1.000000     CON12     -1.000000   
    x[2,3]    OBJ       6.054841      CON6      1.000000    
    x[2,3]    CON12     -1.000000   
    MARKER    'MARKER'                'INTORG'
    u[1,1]    OBJ       48.076654     CON1      -1.000000   
    u[1,2]    OBJ       20.066487     CON2      -1.000000   
    u[1,3]    OBJ       32.230043     CON3      -1.000000   
    u[2,1]    OBJ       49.996186     CON4      -1.000000   
    u[2,2]    OBJ       49.466655     CON5      -1.000000   
    u[2,3]    OBJ       27.484319     CON6      -1.000000   
    y[1,1,1]  OBJ       5.626427      CON7      1.131257    
    y[1,1,1]  CON13     1.000000    
    y[1,1,2]  OBJ       7.534739      CON8      1.348678    
    y[1,1,2]  CON14     1.000000    
    y[1,1,3]  OBJ       8.637296      CON9      1.042037    
    y[1,1,3]  CON15     1.000000    
    y[1,2,1]  OBJ       6.364771      CON7      0.964278    
    y[1,2,1]  CON16     1.000000    
    y[1,2,2]  OBJ       6.119404      CON8      0.751964    
    y[1,2,2]  CON17     1.000000    
    y[1,2,3]  OBJ       5.283773      CON9      1.117330    
    y[1,2,3]  CON18     1.000000    
    y[1,3,1]  OBJ       9.683494      CON7      0.865150    
    y[1,3,1]  CON19     1.000000    
    y[1,3,2]  OBJ       7.554419      CON8      1.419212    
    y[1,3,2]  CON20     1.000000    
    y[1,3,3]  OBJ       8.581626      CON9      0.907830    
    y[1,3,3]  CON21     1.000000    
    y[2,1,1]  OBJ       5.479622      CON10     1.131257    
    y[2,1,1]  CON13     1.000000    
    y[2,1,2]  OBJ       7.299928      CON11     1.348678    
    y[2,1,2]  CON14     1.000000    
    y[2,1,3]  OBJ       6.236794      CON12     1.042037    
    y[2,1,3]  CON15     1.000000    
    y[2,2,1]  OBJ       8.716726      CON10     0.964278    
    y[2,2,1]  CON16     1.000000    
    y[2,2,2]  OBJ       9.674156      CON11     0.751964    
    y[2,2,2]  CON17     1.000000    
    y[2,2,3]  OBJ       5.942352      CON12     1.117330    
    y[2,2,3]  CON18     1.000000    
    y[2,3,1]  OBJ       8.340018      CON10     0.865150    
    y[2,3,1]  CON19     1.000000    
    y[2,3,2]  OBJ       9.011946      CON11     1.419212    
    y[2,3,2]  CON20     1.000000    
    y[2,3,3]  OBJ       6.826792      CON12     0.907830    
    y[2,3,3]  CON21     1.000000    
    z[1,1]    OBJ       845.018936    CON13     1.000000    
    z[1,2]    OBJ       853.861722    CON14     1.000000    
    z[1,3]    OBJ       534.541139    CON15     1.000000    
    z[2,1]    OBJ       746.388846    CON16     1.000000    
    z[2,2]    OBJ       987.777997    CON17     1.000000    
    z[2,3]    OBJ       863.770594    CON18     1.000000    
    z[3,1]    OBJ       847.846656    CON19     1.000000    
    z[3,2]    OBJ       930.684027    CON20     1.000000    
    z[3,3]    OBJ       829.311244    CON21     1.000000    
    MARKER    'MARKER'                 'INTEND'
RHS
    RHS       CON1      -0.000000     CON2      -0.000000   
    RHS       CON3      -0.000000     CON4      -0.000000   
    RHS       CON5      -0.000000     CON6      -0.000000   
    RHS       CON7      -0.000000     CON8      -0.000000   
    RHS       CON9      -0.000000     CON10     -0.000000   
    RHS       CON11     -0.000000     CON12     -0.000000   
    RHS       CON13     1.000000      CON14     1.000000    
    RHS       CON15     1.000000      CON16     1.000000    
    RHS       CON17     1.000000      CON18     1.000000    
    RHS       CON19     1.000000      CON20     1.000000    
    RHS       CON21     1.000000    
BOUNDS
 BV BOUND     u[1,1]  
 BV BOUND     u[1,2]  
 BV BOUND     u[1,3]  
 BV BOUND     u[2,1]  
 BV BOUND     u[2,2]  
 BV BOUND     u[2,3]  
 BV BOUND     y[1,1,1]
 BV BOUND     y[1,1,2]
 BV BOUND     y[1,1,3]
 BV BOUND     y[1,2,1]
 BV BOUND     y[1,2,2]
 BV BOUND     y[1,2,3]
 BV BOUND     y[1,3,1]
 BV BOUND     y[1,3,2]
 BV BOUND     y[1,3,3]
 BV BOUND     y[2,1,1]
 BV BOUND     y[2,1,2]
 BV BOUND     y[2,1,3]
 BV BOUND     y[2,2,1]
 BV BOUND     y[2,2,2]
 BV BOUND     y[2,2,3]
 BV BOUND     y[2,3,1]
 BV BOUND     y[2,3,2]
 BV BOUND     y[2,3,3]
 BV BOUND     z[1,1]  
 BV BOUND     z[1,2]  
 BV BOUND     z[1,3]  
 BV BOUND     z[2,1]  
 BV BOUND     z[2,2]  
 BV BOUND     z[2,3]  
 BV BOUND     z[3,1]  
 BV BOUND     z[3,2]  
 BV BOUND     z[3,3]  
ENDATA
